clingo version 5.2.2
Reading from ...oblems/asp/ancestor/instances/0002.asp ...
Solving...
Answer: 1
husband_of(greco,pugliese) husband_of(pietro,famularo) husband_of(luigi,nik) husband_of(franze,salvo) husband_of(faber,tiano) husband_of(girsch,ursino) husband_of(salerno,perri) husband_of(havelka,stary) husband_of(eiter,seyr) husband_of(gottlob,laura) husband_of(herzog,koch) husband_of(veniva,peratel) husband_of(leone,scarcell) husband_of(citrigno,francesco) husband_of(mainieri,sali) husband_of(jme,pfeifer) married(greco,pugliese) married(pietro,famularo) married(luigi,nik) married(franze,salvo) married(faber,tiano) married(girsch,ursino) married(salerno,perri) married(havelka,stary) married(eiter,seyr) married(gottlob,laura) married(herzog,koch) married(veniva,peratel) married(leone,scarcell) married(citrigno,francesco) married(mainieri,sali) married(jme,pfeifer) married(pugliese,greco) married(famularo,pietro) married(nik,luigi) married(salvo,franze) married(tiano,faber) married(ursino,girsch) married(perri,salerno) married(stary,havelka) married(seyr,eiter) married(laura,gottlob) married(koch,herzog) married(peratel,veniva) married(scarcell,leone) married(francesco,citrigno) married(sali,mainieri) married(pfeifer,jme) married(sergio,sacca) married(palopoli,nigro) married(rullo,frank) married(bucca,pupo) married(stadler,dorn) married(reith,milos) married(sacca,sergio) married(nigro,palopoli) married(frank,rullo) married(pupo,bucca) married(dorn,stadler) married(milos,reith) wife_of(sergio,sacca) wife_of(palopoli,nigro) wife_of(rullo,frank) wife_of(bucca,pupo) wife_of(stadler,dorn) wife_of(reith,milos) father_of(greco,sergio) father_of(pietro,frank) father_of(luigi,rullo) father_of(luigi,palopoli) father_of(sacca,franze) father_of(nigro,girsch) father_of(nigro,faber) father_of(frank,salvo) father_of(frank,tiano) father_of(pupo,ursino) father_of(franze,dorn) father_of(dorn,havelka) father_of(dorn,stary) father_of(havelka,gottlob) father_of(havelka,herzog) father_of(havelka,veniva) father_of(eiter,peratel) father_of(eiter,koch) father_of(eiter,laura) father_of(eiter,leone) father_of(gottlob,citrigno) father_of(gottlob,mainieri) father_of(herzog,jme) father_of(veniva,ehritz) father_of(leone,pfeifer) father_of(leone,sali) father_of(leone,francesco) father_of(citrigno,giulio) father_of(citrigno,daniele) father_of(mainieri,stefano) father_of(jme,gerald) parent(greco,sergio) parent(pietro,frank) parent(luigi,rullo) parent(luigi,palopoli) parent(sacca,franze) parent(nigro,girsch) parent(nigro,faber) parent(frank,salvo) parent(frank,tiano) parent(pupo,ursino) parent(franze,dorn) parent(dorn,havelka) parent(dorn,stary) parent(havelka,gottlob) parent(havelka,herzog) parent(havelka,veniva) parent(eiter,peratel) parent(eiter,koch) parent(eiter,laura) parent(eiter,leone) parent(gottlob,citrigno) parent(gottlob,mainieri) parent(herzog,jme) parent(veniva,ehritz) parent(leone,pfeifer) parent(leone,sali) parent(leone,francesco) parent(citrigno,giulio) parent(citrigno,daniele) parent(mainieri,stefano) parent(jme,gerald) parent(pugliese,nigro) parent(nik,pupo) parent(rullo,salerno) parent(bucca,perri) parent(tiano,milos) parent(ursino,stadler) parent(perri,reith) parent(reith,eiter) parent(pugliese,sergio) parent(famularo,frank) parent(nik,rullo) parent(nik,palopoli) parent(sergio,franze) parent(palopoli,girsch) parent(palopoli,faber) parent(rullo,salvo) parent(rullo,tiano) parent(bucca,ursino) parent(salvo,dorn) parent(stadler,havelka) parent(stadler,stary) parent(stary,gottlob) parent(stary,herzog) parent(stary,veniva) parent(seyr,peratel) parent(seyr,koch) parent(seyr,laura) parent(seyr,leone) parent(laura,citrigno) parent(laura,mainieri) parent(koch,jme) parent(peratel,ehritz) parent(scarcell,pfeifer) parent(scarcell,sali) parent(scarcell,francesco) parent(francesco,giulio) parent(francesco,daniele) parent(sali,stefano) parent(pfeifer,gerald) parent(greco,nigro) parent(luigi,pupo) parent(frank,salerno) parent(pupo,perri) parent(faber,milos) parent(girsch,stadler) parent(salerno,reith) parent(milos,eiter) mother_of(pugliese,nigro) mother_of(nik,pupo) mother_of(rullo,salerno) mother_of(bucca,perri) mother_of(tiano,milos) mother_of(ursino,stadler) mother_of(perri,reith) mother_of(reith,eiter) ancestor(greco,sergio) ancestor(pietro,frank) ancestor(luigi,rullo) ancestor(luigi,palopoli) ancestor(sacca,franze) ancestor(nigro,girsch) ancestor(nigro,faber) ancestor(frank,salvo) ancestor(frank,tiano) ancestor(pupo,ursino) ancestor(franze,dorn) ancestor(dorn,havelka) ancestor(dorn,stary) ancestor(havelka,gottlob) ancestor(havelka,herzog) ancestor(havelka,veniva) ancestor(eiter,peratel) ancestor(eiter,koch) ancestor(eiter,laura) ancestor(eiter,leone) ancestor(gottlob,citrigno) ancestor(gottlob,mainieri) ancestor(herzog,jme) ancestor(veniva,ehritz) ancestor(leone,pfeifer) ancestor(leone,sali) ancestor(leone,francesco) ancestor(citrigno,giulio) ancestor(citrigno,daniele) ancestor(mainieri,stefano) ancestor(jme,gerald) ancestor(pugliese,nigro) ancestor(nik,pupo) ancestor(rullo,salerno) ancestor(bucca,perri) ancestor(tiano,milos) ancestor(ursino,stadler) ancestor(perri,reith) ancestor(reith,eiter) ancestor(pugliese,sergio) ancestor(famularo,frank) ancestor(nik,rullo) ancestor(nik,palopoli) ancestor(sergio,franze) ancestor(palopoli,girsch) ancestor(palopoli,faber) ancestor(rullo,salvo) ancestor(rullo,tiano) ancestor(bucca,ursino) ancestor(salvo,dorn) ancestor(stadler,havelka) ancestor(stadler,stary) ancestor(stary,gottlob) ancestor(stary,herzog) ancestor(stary,veniva) ancestor(seyr,peratel) ancestor(seyr,koch) ancestor(seyr,laura) ancestor(seyr,leone) ancestor(laura,citrigno) ancestor(laura,mainieri) ancestor(koch,jme) ancestor(peratel,ehritz) ancestor(scarcell,pfeifer) ancestor(scarcell,sali) ancestor(scarcell,francesco) ancestor(francesco,giulio) ancestor(francesco,daniele) ancestor(sali,stefano) ancestor(pfeifer,gerald) ancestor(greco,nigro) ancestor(luigi,pupo) ancestor(frank,salerno) ancestor(pupo,perri) ancestor(faber,milos) ancestor(girsch,stadler) ancestor(salerno,reith) ancestor(milos,eiter) ancestor(tiano,eiter) ancestor(faber,eiter) ancestor(rullo,reith) ancestor(frank,reith) ancestor(nigro,stadler) ancestor(palopoli,stadler) ancestor(nigro,milos) ancestor(palopoli,milos) ancestor(nik,perri) ancestor(luigi,perri) ancestor(pietro,salerno) ancestor(famularo,salerno) ancestor(leone,gerald) ancestor(scarcell,gerald) ancestor(leone,stefano) ancestor(scarcell,stefano) ancestor(leone,daniele) ancestor(scarcell,daniele) ancestor(leone,giulio) ancestor(scarcell,giulio) ancestor(eiter,ehritz) ancestor(seyr,ehritz) ancestor(eiter,jme) ancestor(seyr,jme) ancestor(eiter,mainieri) ancestor(seyr,mainieri) ancestor(eiter,citrigno) ancestor(seyr,citrigno) ancestor(dorn,veniva) ancestor(stadler,veniva) ancestor(dorn,herzog) ancestor(stadler,herzog) ancestor(dorn,gottlob) ancestor(stadler,gottlob) ancestor(ursino,stary) ancestor(girsch,stary) ancestor(ursino,havelka) ancestor(girsch,havelka) ancestor(frank,dorn) ancestor(rullo,dorn) ancestor(luigi,tiano) ancestor(nik,tiano) ancestor(luigi,salvo) ancestor(nik,salvo) ancestor(luigi,faber) ancestor(nik,faber) ancestor(luigi,girsch) ancestor(nik,girsch) ancestor(greco,franze) ancestor(pugliese,franze) ancestor(perri,eiter) ancestor(salerno,eiter) ancestor(bucca,reith) ancestor(pupo,reith) ancestor(pupo,stadler) ancestor(bucca,stadler) ancestor(frank,milos) ancestor(rullo,milos) ancestor(luigi,salerno) ancestor(nik,salerno) ancestor(herzog,gerald) ancestor(koch,gerald) ancestor(gottlob,stefano) ancestor(laura,stefano) ancestor(gottlob,daniele) ancestor(laura,daniele) ancestor(gottlob,giulio) ancestor(laura,giulio) ancestor(eiter,francesco) ancestor(seyr,francesco) ancestor(eiter,sali) ancestor(seyr,sali) ancestor(eiter,pfeifer) ancestor(seyr,pfeifer) ancestor(havelka,ehritz) ancestor(stary,ehritz) ancestor(havelka,jme) ancestor(stary,jme) ancestor(havelka,mainieri) ancestor(stary,mainieri) ancestor(havelka,citrigno) ancestor(stary,citrigno) ancestor(reith,leone) ancestor(milos,leone) ancestor(reith,laura) ancestor(milos,laura) ancestor(reith,koch) ancestor(milos,koch) ancestor(reith,peratel) ancestor(milos,peratel) ancestor(franze,stary) ancestor(salvo,stary) ancestor(franze,havelka) ancestor(salvo,havelka) ancestor(sacca,dorn) ancestor(sergio,dorn) ancestor(nik,ursino) ancestor(luigi,ursino) ancestor(pietro,tiano) ancestor(famularo,tiano) ancestor(pietro,salvo) ancestor(famularo,salvo) ancestor(pugliese,faber) ancestor(greco,faber) ancestor(pugliese,girsch) ancestor(greco,girsch) ancestor(greco,dorn) ancestor(pugliese,dorn) ancestor(frank,havelka) ancestor(rullo,havelka) ancestor(luigi,havelka) ancestor(nik,havelka) ancestor(pietro,havelka) ancestor(famularo,havelka) ancestor(sacca,havelka) ancestor(sergio,havelka) ancestor(greco,havelka) ancestor(pugliese,havelka) ancestor(frank,stary) ancestor(rullo,stary) ancestor(luigi,stary) ancestor(nik,stary) ancestor(pietro,stary) ancestor(famularo,stary) ancestor(sacca,stary) ancestor(sergio,stary) ancestor(greco,stary) ancestor(pugliese,stary) ancestor(tiano,peratel) ancestor(faber,peratel) ancestor(nigro,peratel) ancestor(palopoli,peratel) ancestor(frank,peratel) ancestor(rullo,peratel) ancestor(perri,peratel) ancestor(salerno,peratel) ancestor(bucca,peratel) ancestor(pupo,peratel) ancestor(tiano,koch) ancestor(faber,koch) ancestor(nigro,koch) ancestor(palopoli,koch) ancestor(frank,koch) ancestor(rullo,koch) ancestor(perri,koch) ancestor(salerno,koch) ancestor(bucca,koch) ancestor(pupo,koch) ancestor(tiano,laura) ancestor(faber,laura) ancestor(nigro,laura) ancestor(palopoli,laura) ancestor(frank,laura) ancestor(rullo,laura) ancestor(perri,laura) ancestor(salerno,laura) ancestor(bucca,laura) ancestor(pupo,laura) ancestor(tiano,leone) ancestor(faber,leone) ancestor(nigro,leone) ancestor(palopoli,leone) ancestor(frank,leone) ancestor(rullo,leone) ancestor(perri,leone) ancestor(salerno,leone) ancestor(bucca,leone) ancestor(pupo,leone) ancestor(dorn,citrigno) ancestor(stadler,citrigno) ancestor(ursino,citrigno) ancestor(girsch,citrigno) ancestor(franze,citrigno) ancestor(salvo,citrigno) ancestor(dorn,mainieri) ancestor(stadler,mainieri) ancestor(ursino,mainieri) ancestor(girsch,mainieri) ancestor(franze,mainieri) ancestor(salvo,mainieri) ancestor(dorn,jme) ancestor(stadler,jme) ancestor(ursino,jme) ancestor(girsch,jme) ancestor(franze,jme) ancestor(salvo,jme) ancestor(dorn,ehritz) ancestor(stadler,ehritz) ancestor(ursino,ehritz) ancestor(girsch,ehritz) ancestor(franze,ehritz) ancestor(salvo,ehritz) ancestor(reith,pfeifer) ancestor(milos,pfeifer) ancestor(tiano,pfeifer) ancestor(faber,pfeifer) ancestor(perri,pfeifer) ancestor(salerno,pfeifer) ancestor(reith,sali) ancestor(milos,sali) ancestor(tiano,sali) ancestor(faber,sali) ancestor(perri,sali) ancestor(salerno,sali) ancestor(reith,francesco) ancestor(milos,francesco) ancestor(tiano,francesco) ancestor(faber,francesco) ancestor(perri,francesco) ancestor(salerno,francesco) ancestor(eiter,giulio) ancestor(seyr,giulio) ancestor(reith,giulio) ancestor(milos,giulio) ancestor(havelka,giulio) ancestor(stary,giulio) ancestor(dorn,giulio) ancestor(stadler,giulio) ancestor(eiter,daniele) ancestor(seyr,daniele) ancestor(reith,daniele) ancestor(milos,daniele) ancestor(havelka,daniele) ancestor(stary,daniele) ancestor(dorn,daniele) ancestor(stadler,daniele) ancestor(eiter,stefano) ancestor(seyr,stefano) ancestor(reith,stefano) ancestor(milos,stefano) ancestor(havelka,stefano) ancestor(stary,stefano) ancestor(dorn,stefano) ancestor(stadler,stefano) ancestor(eiter,gerald) ancestor(seyr,gerald) ancestor(reith,gerald) ancestor(milos,gerald) ancestor(havelka,gerald) ancestor(stary,gerald) ancestor(dorn,gerald) ancestor(stadler,gerald) ancestor(luigi,milos) ancestor(nik,milos) ancestor(pietro,milos) ancestor(famularo,milos) ancestor(nik,stadler) ancestor(luigi,stadler) ancestor(nik,reith) ancestor(luigi,reith) ancestor(rullo,eiter) ancestor(frank,eiter) ancestor(pietro,eiter) ancestor(famularo,eiter) ancestor(luigi,eiter) ancestor(nik,eiter) ancestor(bucca,eiter) ancestor(pupo,eiter) ancestor(luigi,dorn) ancestor(nik,dorn) ancestor(pietro,dorn) ancestor(famularo,dorn) ancestor(nigro,havelka) ancestor(palopoli,havelka) ancestor(pupo,havelka) ancestor(bucca,havelka) ancestor(nigro,stary) ancestor(palopoli,stary) ancestor(pupo,stary) ancestor(bucca,stary) ancestor(ursino,gottlob) ancestor(girsch,gottlob) ancestor(nigro,gottlob) ancestor(palopoli,gottlob) ancestor(pupo,gottlob) ancestor(bucca,gottlob) ancestor(franze,gottlob) ancestor(salvo,gottlob) ancestor(frank,gottlob) ancestor(rullo,gottlob) ancestor(sacca,gottlob) ancestor(sergio,gottlob) ancestor(ursino,herzog) ancestor(girsch,herzog) ancestor(nigro,herzog) ancestor(palopoli,herzog) ancestor(pupo,herzog) ancestor(bucca,herzog) ancestor(franze,herzog) ancestor(salvo,herzog) ancestor(frank,herzog) ancestor(rullo,herzog) ancestor(sacca,herzog) ancestor(sergio,herzog) ancestor(ursino,veniva) ancestor(girsch,veniva) ancestor(nigro,veniva) ancestor(palopoli,veniva) ancestor(pupo,veniva) ancestor(bucca,veniva) ancestor(franze,veniva) ancestor(salvo,veniva) ancestor(frank,veniva) ancestor(rullo,veniva) ancestor(sacca,veniva) ancestor(sergio,veniva) ancestor(reith,citrigno) ancestor(milos,citrigno) ancestor(tiano,citrigno) ancestor(faber,citrigno) ancestor(perri,citrigno) ancestor(salerno,citrigno) ancestor(reith,mainieri) ancestor(milos,mainieri) ancestor(tiano,mainieri) ancestor(faber,mainieri) ancestor(perri,mainieri) ancestor(salerno,mainieri) ancestor(reith,jme) ancestor(milos,jme) ancestor(tiano,jme) ancestor(faber,jme) ancestor(perri,jme) ancestor(salerno,jme) ancestor(reith,ehritz) ancestor(milos,ehritz) ancestor(tiano,ehritz) ancestor(faber,ehritz) ancestor(perri,ehritz) ancestor(salerno,ehritz) ancestor(pugliese,milos) ancestor(greco,milos) ancestor(pugliese,stadler) ancestor(greco,stadler) ancestor(pietro,reith) ancestor(famularo,reith) ancestor(nigro,eiter) ancestor(palopoli,eiter) ancestor(pugliese,eiter) ancestor(greco,eiter) ancestor(rullo,ehritz) ancestor(frank,ehritz) ancestor(pietro,ehritz) ancestor(famularo,ehritz) ancestor(luigi,ehritz) ancestor(nik,ehritz) ancestor(bucca,ehritz) ancestor(pupo,ehritz) ancestor(nigro,ehritz) ancestor(palopoli,ehritz) ancestor(pugliese,ehritz) ancestor(greco,ehritz) ancestor(rullo,jme) ancestor(frank,jme) ancestor(pietro,jme) ancestor(famularo,jme) ancestor(luigi,jme) ancestor(nik,jme) ancestor(bucca,jme) ancestor(pupo,jme) ancestor(nigro,jme) ancestor(palopoli,jme) ancestor(pugliese,jme) ancestor(greco,jme) ancestor(rullo,mainieri) ancestor(frank,mainieri) ancestor(pietro,mainieri) ancestor(famularo,mainieri) ancestor(luigi,mainieri) ancestor(nik,mainieri) ancestor(bucca,mainieri) ancestor(pupo,mainieri) ancestor(nigro,mainieri) ancestor(palopoli,mainieri) ancestor(pugliese,mainieri) ancestor(greco,mainieri) ancestor(rullo,citrigno) ancestor(frank,citrigno) ancestor(pietro,citrigno) ancestor(famularo,citrigno) ancestor(luigi,citrigno) ancestor(nik,citrigno) ancestor(bucca,citrigno) ancestor(pupo,citrigno) ancestor(nigro,citrigno) ancestor(palopoli,citrigno) ancestor(pugliese,citrigno) ancestor(greco,citrigno) ancestor(greco,veniva) ancestor(pugliese,veniva) ancestor(luigi,veniva) ancestor(nik,veniva) ancestor(pietro,veniva) ancestor(famularo,veniva) ancestor(greco,herzog) ancestor(pugliese,herzog) ancestor(luigi,herzog) ancestor(nik,herzog) ancestor(pietro,herzog) ancestor(famularo,herzog) ancestor(greco,gottlob) ancestor(pugliese,gottlob) ancestor(luigi,gottlob) ancestor(nik,gottlob) ancestor(pietro,gottlob) ancestor(famularo,gottlob) ancestor(ursino,gerald) ancestor(girsch,gerald) ancestor(nigro,gerald) ancestor(palopoli,gerald) ancestor(pupo,gerald) ancestor(bucca,gerald) ancestor(nik,gerald) ancestor(luigi,gerald) ancestor(pugliese,gerald) ancestor(greco,gerald) ancestor(franze,gerald) ancestor(salvo,gerald) ancestor(frank,gerald) ancestor(rullo,gerald) ancestor(sacca,gerald) ancestor(sergio,gerald) ancestor(pietro,gerald) ancestor(famularo,gerald) ancestor(tiano,gerald) ancestor(faber,gerald) ancestor(perri,gerald) ancestor(salerno,gerald) ancestor(ursino,stefano) ancestor(girsch,stefano) ancestor(nigro,stefano) ancestor(palopoli,stefano) ancestor(pupo,stefano) ancestor(bucca,stefano) ancestor(nik,stefano) ancestor(luigi,stefano) ancestor(pugliese,stefano) ancestor(greco,stefano) ancestor(franze,stefano) ancestor(salvo,stefano) ancestor(frank,stefano) ancestor(rullo,stefano) ancestor(sacca,stefano) ancestor(sergio,stefano) ancestor(pietro,stefano) ancestor(famularo,stefano) ancestor(tiano,stefano) ancestor(faber,stefano) ancestor(perri,stefano) ancestor(salerno,stefano) ancestor(ursino,daniele) ancestor(girsch,daniele) ancestor(nigro,daniele) ancestor(palopoli,daniele) ancestor(pupo,daniele) ancestor(bucca,daniele) ancestor(nik,daniele) ancestor(luigi,daniele) ancestor(pugliese,daniele) ancestor(greco,daniele) ancestor(franze,daniele) ancestor(salvo,daniele) ancestor(frank,daniele) ancestor(rullo,daniele) ancestor(sacca,daniele) ancestor(sergio,daniele) ancestor(pietro,daniele) ancestor(famularo,daniele) ancestor(tiano,daniele) ancestor(faber,daniele) ancestor(perri,daniele) ancestor(salerno,daniele) ancestor(ursino,giulio) ancestor(girsch,giulio) ancestor(nigro,giulio) ancestor(palopoli,giulio) ancestor(pupo,giulio) ancestor(bucca,giulio) ancestor(nik,giulio) ancestor(luigi,giulio) ancestor(pugliese,giulio) ancestor(greco,giulio) ancestor(franze,giulio) ancestor(salvo,giulio) ancestor(frank,giulio) ancestor(rullo,giulio) ancestor(sacca,giulio) ancestor(sergio,giulio) ancestor(pietro,giulio) ancestor(famularo,giulio) ancestor(tiano,giulio) ancestor(faber,giulio) ancestor(perri,giulio) ancestor(salerno,giulio) ancestor(rullo,francesco) ancestor(frank,francesco) ancestor(pietro,francesco) ancestor(famularo,francesco) ancestor(luigi,francesco) ancestor(nik,francesco) ancestor(bucca,francesco) ancestor(pupo,francesco) ancestor(nigro,francesco) ancestor(palopoli,francesco) ancestor(pugliese,francesco) ancestor(greco,francesco) ancestor(rullo,sali) ancestor(frank,sali) ancestor(pietro,sali) ancestor(famularo,sali) ancestor(luigi,sali) ancestor(nik,sali) ancestor(bucca,sali) ancestor(pupo,sali) ancestor(nigro,sali) ancestor(palopoli,sali) ancestor(pugliese,sali) ancestor(greco,sali) ancestor(rullo,pfeifer) ancestor(frank,pfeifer) ancestor(pietro,pfeifer) ancestor(famularo,pfeifer) ancestor(luigi,pfeifer) ancestor(nik,pfeifer) ancestor(bucca,pfeifer) ancestor(pupo,pfeifer) ancestor(nigro,pfeifer) ancestor(palopoli,pfeifer) ancestor(pugliese,pfeifer) ancestor(greco,pfeifer) ancestor(sacca,ehritz) ancestor(sergio,ehritz) ancestor(sacca,jme) ancestor(sergio,jme) ancestor(sacca,mainieri) ancestor(sergio,mainieri) ancestor(sacca,citrigno) ancestor(sergio,citrigno) ancestor(nik,leone) ancestor(luigi,leone) ancestor(pietro,leone) ancestor(famularo,leone) ancestor(pugliese,leone) ancestor(greco,leone) ancestor(nik,laura) ancestor(luigi,laura) ancestor(pietro,laura) ancestor(famularo,laura) ancestor(pugliese,laura) ancestor(greco,laura) ancestor(nik,koch) ancestor(luigi,koch) ancestor(pietro,koch) ancestor(famularo,koch) ancestor(pugliese,koch) ancestor(greco,koch) ancestor(nik,peratel) ancestor(luigi,peratel) ancestor(pietro,peratel) ancestor(famularo,peratel) ancestor(pugliese,peratel) ancestor(greco,peratel)
SATISFIABLE

Models       : 1
Calls        : 1
Time         : 0.004s (Solving: 0.00s 1st Model: 0.00s Unsat: 0.00s)
CPU Time     : 0.004s
